30
1 0 2
2 0 4
2 1 10
3 0 7
3 1 8
3 2 7
4 0 10
4 1 1
4 2 7
4 3 8
5 0 10
5 1 8
5 2 1
5 3 3
5 4 8
6 0 9
6 1 6
6 2 1
6 3 2
6 4 4
6 5 10
7 0 8
7 1 8
7 2 6
7 3 10
7 4 7
7 5 3
7 6 6
8 0 7
8 1 9
8 2 3
8 3 5
8 4 9
8 5 2
8 6 4
8 7 6
9 0 3
9 1 10
9 2 5
9 3 1
9 4 8
9 5 8
9 6 8
9 7 10
9 8 3
10 0 7
10 1 5
10 2 7
10 3 6
10 4 8
10 5 7
10 6 9
10 7 9
10 8 8
10 9 3
11 0 10
11 1 2
11 2 3
11 3 8
11 4 10
11 5 1
11 6 6
11 7 10
11 8 9
11 9 9
11 10 9
12 0 5
12 1 10
12 2 5
12 3 9
12 4 9
12 5 8
12 6 10
12 7 6
12 8 4
12 9 1
12 10 1
12 11 3
13 0 9
13 1 1
13 2 4
13 3 5
13 4 4
13 5 8
13 6 1
13 7 2
13 8 3
13 9 9
13 10 7
13 11 9
13 12 8
14 0 1
14 1 7
14 2 10
14 3 8
14 4 8
14 5 3
14 6 1
14 7 2
14 8 10
14 9 6
14 10 10
14 11 2
14 12 6
14 13 3
15 0 5
15 1 5
15 2 4
15 3 8
15 4 1
15 5 6
15 6 7
15 7 7
15 8 4
15 9 1
15 10 7
15 11 5
15 12 9
15 13 7
15 14 8
16 0 2
16 1 8
16 2 5
16 3 8
16 4 5
16 5 8
16 6 10
16 7 3
16 8 7
16 9 4
16 10 8
16 11 10
16 12 2
16 13 1
16 14 3
16 15 7
17 0 4
17 1 6
17 2 4
17 3 5
17 4 2
17 5 1
17 6 7
17 7 2
17 8 5
17 9 5
17 10 4
17 11 9
17 12 3
17 13 10
17 14 7
17 15 5
17 16 4
18 0 7
18 1 10
18 2 4
18 3 10
18 4 8
18 5 6
18 6 7
18 7 5
18 8 3
18 9 5
18 10 5
18 11 5
18 12 9
18 13 4
18 14 1
18 15 5
18 16 8
18 17 4
19 0 5
19 1 1
19 2 3
19 3 1
19 4 4
19 5 9
19 6 9
19 7 7
19 8 9
19 9 7
19 10 2
19 11 4
19 12 9
19 13 2
19 14 2
19 15 1
19 16 9
19 17 10
19 18 7
20 0 2
20 1 6
20 2 1
20 3 10
20 4 5
20 5 3
20 6 4
20 7 7
20 8 10
20 9 1
20 10 4
20 11 5
20 12 8
20 13 7
20 14 2
20 15 1
20 16 4
20 17 4
20 18 8
20 19 5
21 0 2
21 1 4
21 2 1
21 3 8
21 4 7
21 5 2
21 6 9
21 7 7
21 8 10
21 9 1
21 10 9
21 11 10
21 12 7
21 13 4
21 14 10
21 15 6
21 16 9
21 17 7
21 18 9
21 19 9
21 20 10
22 0 8
22 1 2
22 2 1
22 3 8
22 4 4
22 5 4
22 6 1
22 7 4
22 8 4
22 9 7
22 10 5
22 11 8
22 12 4
22 13 5
22 14 8
22 15 7
22 16 3
22 17 3
22 18 9
22 19 8
22 20 1
22 21 10
23 0 5
23 1 8
23 2 9
23 3 1
23 4 9
23 5 4
23 6 9
23 7 9
23 8 8
23 9 1
23 10 3
23 11 6
23 12 6
23 13 1
23 14 5
23 15 1
23 16 5
23 17 1
23 18 7
23 19 10
23 20 6
23 21 2
23 22 3
24 0 5
24 1 3
24 2 6
24 3 9
24 4 8
24 5 8
24 6 1
24 7 7
24 8 5
24 9 6
24 10 7
24 11 1
24 12 5
24 13 5
24 14 8
24 15 6
24 16 3
24 17 4
24 18 7
24 19 7
24 20 9
24 21 6
24 22 8
24 23 1
25 0 10
25 1 1
25 2 7
25 3 6
25 4 10
25 5 8
25 6 9
25 7 5
25 8 6
25 9 5
25 10 1
25 11 3
25 12 4
25 13 8
25 14 1
25 15 4
25 16 4
25 17 8
25 18 8
25 19 8
25 20 1
25 21 7
25 22 5
25 23 9
25 24 8
26 0 8
26 1 1
26 2 10
26 3 5
26 4 4
26 5 6
26 6 3
26 7 5
26 8 9
26 9 1
26 10 9
26 11 3
26 12 10
26 13 9
26 14 7
26 15 10
26 16 6
26 17 3
26 18 10
26 19 5
26 20 7
26 21 6
26 22 10
26 23 3
26 24 8
26 25 3
27 0 2
27 1 5
27 2 9
27 3 8
27 4 7
27 5 2
27 6 7
27 7 1
27 8 1
27 9 6
27 10 3
27 11 10
27 12 6
27 13 9
27 14 4
27 15 6
27 16 10
27 17 9
27 18 7
27 19 3
27 20 2
27 21 3
27 22 6
27 23 3
27 24 6
27 25 1
27 26 5
28 0 2
28 1 1
28 2 9
28 3 7
28 4 10
28 5 6
28 6 1
28 7 8
28 8 8
28 9 3
28 10 3
28 11 7
28 12 2
28 13 9
28 14 8
28 15 6
28 16 4
28 17 9
28 18 3
28 19 6
28 20 6
28 21 7
28 22 10
28 23 7
28 24 7
28 25 8
28 26 9
28 27 8
29 0 5
29 1 2
29 2 10
29 3 5
29 4 6
29 5 8
29 6 7
29 7 7
29 8 7
29 9 10
29 10 5
29 11 10
29 12 5
29 13 5
29 14 6
29 15 2
29 16 9
29 17 2
29 18 9
29 19 1
29 20 2
29 21 9
29 22 1
29 23 8
29 24 3
29 25 9
29 26 6
29 27 6
29 28 1
